(declare-fun temp34856_1 () (_ BitVec 64))
(declare-fun temp34856_2 () (_ BitVec 64))
(declare-fun var77740 () (_ BitVec 64))
(declare-fun k!0 () Bool)
(declare-fun ARGNAME_input_1_NAMEEND_DIM () (_ BitVec 64))
(declare-fun ARGNAME_data_format_NAMEEND_STRFMT () (_ BitVec 64))
(declare-fun temp34856_3 () (_ BitVec 64))
(declare-fun ARGNAME_input_2_NAMEEND_DIM () (_ BitVec 64))
(declare-fun var77770 () (_ BitVec 64))
(declare-fun temp34856_4 () (_ BitVec 64))
(declare-fun temp34856_5 () (_ BitVec 64))
(declare-fun ARGNAME_input_1_NAMEEND_DIMSIZE
             ()
             (Array (_ BitVec 64) (_ BitVec 64)))
(declare-fun temp34856_6 () (_ BitVec 64))
(declare-fun temp34856_7 () (_ BitVec 64))
(declare-fun temp34856_8 () (_ BitVec 64))
(declare-fun temp34856_9 () (_ BitVec 64))
(declare-fun temp34856_10 () (_ BitVec 64))
(declare-fun temp34856_11 () (_ BitVec 64))
(declare-fun temp34856_12 () (_ BitVec 64))
(declare-fun temp34856_13 () (_ BitVec 64))
(declare-fun temp34856_14 () (_ BitVec 64))
(declare-fun temp34856_15 () (_ BitVec 64))
(declare-fun temp34856_16 () (_ BitVec 64))
(declare-fun temp34856_17 () (_ BitVec 64))
(declare-fun temp34856_18 () (_ BitVec 64))
(declare-fun var77799 () (_ BitVec 64))
(declare-fun temp34856_19 () (_ BitVec 64))
(declare-fun ARGNAME_input_2_NAMEEND_DIMSIZE
             ()
             (Array (_ BitVec 64) (_ BitVec 64)))
(declare-fun temp34856_20 () (_ BitVec 64))
(declare-fun temp34856_21 () (_ BitVec 64))
(declare-fun temp34856_22 () (_ BitVec 64))
(declare-fun temp34856_23 () (_ BitVec 64))
(declare-fun temp34856_24 () (_ BitVec 64))
(declare-fun temp34856_25 () (_ BitVec 64))
(declare-fun temp34856_26 () (_ BitVec 64))
(declare-fun temp34856_27 () (_ BitVec 64))
(declare-fun temp34856_28 () (_ BitVec 64))
(declare-fun temp34856_29 () (_ BitVec 64))
(declare-fun temp34856_30 () (_ BitVec 64))
(declare-fun temp34856_31 () (_ BitVec 64))
(declare-fun temp34856_32 () (_ BitVec 64))
(declare-fun var77832 () (_ BitVec 64))
(declare-fun temp34856_33 () (_ BitVec 64))
(declare-fun temp34856_34 () (_ BitVec 64))
(declare-fun var77833 () (_ BitVec 64))
(declare-fun var77834 () (_ BitVec 64))
(declare-fun temp34856_35 () (_ BitVec 64))
(declare-fun temp34856_36 () (_ BitVec 64))
(declare-fun var275510 () (_ BitVec 64))
(declare-fun temp34856_37 () (_ BitVec 64))
(declare-fun var275528 () (_ BitVec 64))
(declare-fun temp34856_38 () (_ BitVec 64))
(declare-fun temp34856_40 () (_ BitVec 64))
(declare-fun temp34856_39 () (_ BitVec 64))
(declare-fun temp34856_42 () (_ BitVec 64))
(declare-fun temp34856_41 () (_ BitVec 64))
(declare-fun temp34856_43 () (_ BitVec 64))
(declare-fun var406582 () (_ BitVec 64))
(declare-fun temp34856_44 () (_ BitVec 64))
(declare-fun var406600 () (_ BitVec 64))
(declare-fun temp34856_45 () (_ BitVec 64))
(declare-fun temp34856_47 () (_ BitVec 64))
(declare-fun temp34856_46 () (_ BitVec 64))
(declare-fun temp34856_49 () (_ BitVec 64))
(declare-fun temp34856_48 () (_ BitVec 64))
(declare-fun temp34856_50 () (_ BitVec 64))
(declare-fun var537654 () (_ BitVec 64))
(declare-fun temp34856_51 () (_ BitVec 64))
(declare-fun var537672 () (_ BitVec 64))
(declare-fun temp34856_52 () (_ BitVec 64))
(declare-fun temp34856_54 () (_ BitVec 64))
(declare-fun temp34856_53 () (_ BitVec 64))
(declare-fun temp34856_56 () (_ BitVec 64))
(declare-fun temp34856_55 () (_ BitVec 64))
(declare-fun temp34856_58 () (_ BitVec 64))
(declare-fun temp34856_57 () (_ BitVec 64))
(declare-fun temp34856_60 () (_ BitVec 64))
(declare-fun temp34856_59 () (_ BitVec 64))
(declare-fun temp34856_62 () (_ BitVec 64))
(declare-fun temp34856_61 () (_ BitVec 64))
(declare-fun temp34856_63 () (_ BitVec 64))
(declare-fun var1057842 () (_ BitVec 64))
(declare-fun temp34856_64 () (_ BitVec 64))
(declare-fun var1123378 () (_ BitVec 64))
(declare-fun temp34856_65 () (_ BitVec 64))
(declare-fun var1188914 () (_ BitVec 64))
(assert (or (= ARGNAME_data_format_NAMEEND_STRFMT #x0000000000000000)
    (= ARGNAME_data_format_NAMEEND_STRFMT #x0000000000000001)
    (= ARGNAME_data_format_NAMEEND_STRFMT #x0000000000000002)
    (= ARGNAME_data_format_NAMEEND_STRFMT #x0000000000000003)
    (= ARGNAME_data_format_NAMEEND_STRFMT #x0000000000000004)
    (= ARGNAME_data_format_NAMEEND_STRFMT #x0000000000000005)))
(assert (= temp34856_1 #x0000000000000005))
(assert (= var77740
   (ite (= ARGNAME_input_1_NAMEEND_DIM temp34856_1)
        #x0000000000000001
        #x0000000000000000)))
(assert (= temp34856_2 #x0000000000000001))
(assert (= var77740 temp34856_2))
(assert (= temp34856_3 #x0000000000000005))
(assert (= var77770
   (ite (= ARGNAME_input_2_NAMEEND_DIM temp34856_3)
        #x0000000000000001
        #x0000000000000000)))
(assert (= temp34856_4 #x0000000000000001))
(assert (= var77770 temp34856_4))
(assert (= temp34856_5 #x0000000000000000))
(assert (= temp34856_6 (select ARGNAME_input_1_NAMEEND_DIMSIZE temp34856_5)))
(assert (= temp34856_7 #x0000000000000001))
(assert (= temp34856_8 (select ARGNAME_input_1_NAMEEND_DIMSIZE temp34856_7)))
(assert (= temp34856_9 #x0000000000000002))
(assert (= temp34856_10 (select ARGNAME_input_1_NAMEEND_DIMSIZE temp34856_9)))
(assert (= temp34856_11 #x0000000000000003))
(assert (= temp34856_12 (select ARGNAME_input_1_NAMEEND_DIMSIZE temp34856_11)))
(assert (= temp34856_13 #x0000000000000004))
(assert (= temp34856_14 (select ARGNAME_input_1_NAMEEND_DIMSIZE temp34856_13)))
(assert (= temp34856_15 #x0000000000000005))
(assert (= temp34856_16 (select ARGNAME_input_1_NAMEEND_DIMSIZE temp34856_15)))
(assert (= temp34856_17 #x0000000000000003))
(assert (= temp34856_18 (select ARGNAME_input_1_NAMEEND_DIMSIZE temp34856_17)))
(assert (= var77799 temp34856_18))
(assert (= temp34856_19 #x0000000000000000))
(assert (= temp34856_20 (select ARGNAME_input_2_NAMEEND_DIMSIZE temp34856_19)))
(assert (= temp34856_21 #x0000000000000001))
(assert (= temp34856_22 (select ARGNAME_input_2_NAMEEND_DIMSIZE temp34856_21)))
(assert (= temp34856_23 #x0000000000000002))
(assert (= temp34856_24 (select ARGNAME_input_2_NAMEEND_DIMSIZE temp34856_23)))
(assert (= temp34856_25 #x0000000000000003))
(assert (= temp34856_26 (select ARGNAME_input_2_NAMEEND_DIMSIZE temp34856_25)))
(assert (= temp34856_27 #x0000000000000004))
(assert (= temp34856_28 (select ARGNAME_input_2_NAMEEND_DIMSIZE temp34856_27)))
(assert (= temp34856_29 #x0000000000000005))
(assert (= temp34856_30 (select ARGNAME_input_2_NAMEEND_DIMSIZE temp34856_29)))
(assert (= temp34856_31 #x0000000000000004))
(assert (= temp34856_32 (select ARGNAME_input_2_NAMEEND_DIMSIZE temp34856_31)))
(assert (= var77832 temp34856_32))
(assert (= temp34856_33 #x0000000000000004))
(assert (= temp34856_34 (select ARGNAME_input_1_NAMEEND_DIMSIZE temp34856_33)))
(assert (= var77833 temp34856_34))
(assert (= var77834 (ite (= var77832 var77833) #x0000000000000001 #x0000000000000000)))
(assert (= temp34856_35 #x0000000000000001))
(assert (= var77834 temp34856_35))
(assert (= temp34856_36 #x0000000000000001))
(assert (= var275510 temp34856_36))
(assert (= temp34856_37 #x0000000000000001))
(assert (= var275528
   (ite (bvslt var275510 temp34856_37) #x0000000000000001 #x0000000000000000)))
(assert (= temp34856_38 #x0000000000000000))
(assert (= var275528 temp34856_38))
(assert (= temp34856_40 #x0000000000000000))
(assert (= temp34856_39 temp34856_40))
(assert (= temp34856_42 #x0000000000000000))
(assert (= temp34856_41 temp34856_42))
(assert (= temp34856_43 #x0000000000000001))
(assert (= var406582 temp34856_43))
(assert (= temp34856_44 #x0000000000000001))
(assert (= var406600
   (ite (bvslt var406582 temp34856_44) #x0000000000000001 #x0000000000000000)))
(assert (= temp34856_45 #x0000000000000000))
(assert (= var406600 temp34856_45))
(assert (= temp34856_47 #x0000000000000000))
(assert (= temp34856_46 temp34856_47))
(assert (= temp34856_49 #x0000000000000000))
(assert (= temp34856_48 temp34856_49))
(assert (= temp34856_50 #x0000000000000001))
(assert (= var537654 temp34856_50))
(assert (= temp34856_51 #x0000000000000001))
(assert (= var537672
   (ite (bvslt var537654 temp34856_51) #x0000000000000001 #x0000000000000000)))
(assert (= temp34856_52 #x0000000000000000))
(assert (= var537672 temp34856_52))
(assert (= temp34856_54 #x0000000000000000))
(assert (= temp34856_53 temp34856_54))
(assert (= temp34856_56 #x0000000000000000))
(assert (= temp34856_55 temp34856_56))
(assert (= temp34856_58 #x00000000000000ff))
(assert (= temp34856_57 temp34856_58))
(assert (= temp34856_60 #x00000000000000ff))
(assert (= temp34856_59 temp34856_60))
(assert (= temp34856_62 #x00000000000000ff))
(assert (= temp34856_61 temp34856_62))
(assert (= temp34856_63 #x0000000000008000))
(assert (= var1057842 temp34856_63))
(assert (= temp34856_64 #x0000000000040000))
(assert (= var1123378 temp34856_64))
(assert (= temp34856_65 #x0000000000200000))
(assert (= var1188914 temp34856_65))
(model-add temp34856_1 () (_ BitVec 64) #x0000000000000005)
(model-add temp34856_2 () (_ BitVec 64) #x0000000000000001)
(model-add var77740 () (_ BitVec 64) #x0000000000000001)
(model-del k!0)
(model-add ARGNAME_input_1_NAMEEND_DIM
           ()
           (_ BitVec 64)
           (ite k!0 #x0000000000000005 (bvnot #x0000000000000005)))

